Route #1: 2 41 14 13 38 9 36 22
Route #2: 17 30 23 40 29 43
Route #3: 6 25 3 12 39 34 4
Route #4: 26 10 11 16 20 18 35 1
Route #5: 19 33 37 42 32 21 5 24
Route #6: 7 28 27 15 8 31
Cost 937
Time 0.084437
